(set-logic QF_S)
(declare-fun var0 () String)
(declare-fun var1 () Int)
(declare-fun var2 () Bool)
(declare-fun var3 () String)
(declare-fun var4 () Int)
(declare-fun var5 () Bool)
(declare-fun var6 () String)
(declare-fun var7 () Int)
(declare-fun var8 () Bool)
(assert (str.prefixof (str.replace (str.substr var0 3 var1) (str.substr var3 var1 var1) (str.substr var6 var4 var7)) (str.substr (str.replace var6 "+>j7dm}5tD" var0) (str.len var3) (str.len var6))))
(assert (< (str.indexof (str.replace "@[g}91a*V7" var0 var0) (str.replace var6 "k*hS$OlNW>" var6) (str.indexof var3 var0 var4)) (str.len (str.substr var6 var1 var4))))
(assert (str.suffixof var0 var0))
(assert (str.in.re (str.replace var6 var3 var6) (re.+ re.allchar)))
(check-sat)